c :: WCTIME=27.7323
c :: command line :: ./optimal-finder cvc-ult_6.cnf -minimal
c :: version :: 160
c :: reference filename :: cvc-ult_6.cnf
c :: reference encoding :: 68
c i 18 15 12 9 6 3 19 16 13 10 7 4 2 0
c :: inputs :: 18 15 12 9 6 3 19 16 13 10 7 4 2 
c :: clause minimization :: 0
c :: assignments analyzed :: 1379446
c :: reference encoding :: variables :: 33 :: clauses :: 68
c :: optimal encoding :: variables :: 13 :: clauses :: 158
c :: optimal minimal encoding :: 158
p cnf 34 158
-4 3 2 0
-2 -3 4 0
-7 3 6 2 0
-7 -4 6 2 0
-2 7 -3 -6 0
-2 7 4 -6 0
-7 9 -10 3 2 0
-2 10 -3 7 -9 0
-2 10 4 7 -9 0
9 -10 3 6 2 0
-2 10 -3 -6 -9 0
-2 10 4 -6 -9 0
-4 9 -10 6 2 0
-7 9 -10 -4 2 0
-13 -7 3 -10 12 2 0
-2 -12 -3 -6 -9 13 0
-13 -10 3 6 12 2 0
-13 -4 -10 6 12 2 0
-13 -7 9 12 3 2 0
-13 9 3 6 12 2 0
-13 -4 9 6 12 2 0
-13 -7 9 -4 12 2 0
-2 13 4 7 10 -12 0
-2 13 10 -3 7 -12 0
-13 -7 -10 -4 12 2 0
-2 13 -3 7 -9 -12 0
-2 -12 4 7 -9 13 0
-2 -12 4 -6 13 -9 0
-2 -12 -3 -6 10 13 0
-2 -12 4 10 -6 13 0
19 -2 4 7 -9 -12 16 0
19 -2 7 10 -12 4 16 0
19 -2 -3 7 13 -15 -9 0
19 -2 4 7 -9 13 -15 0
19 -2 -3 -6 10 -12 16 0
19 -2 -3 7 -9 -12 -15 0
19 -2 4 7 -9 -12 -15 0
19 -2 -3 7 10 16 -12 0
-18 -2 -3 -6 10 16 -12 0
-18 -2 4 13 -6 -15 -9 0
-18 -2 -3 10 -6 13 16 0
-2 16 -3 7 -9 -12 -15 0
-2 -15 4 7 -9 -12 16 0
-18 -2 4 7 -9 -15 -12 0
19 -2 -3 -6 -9 16 -12 0
19 -2 -3 -9 -6 13 16 0
-2 16 -3 7 13 -15 -9 0
-2 -15 4 7 -9 13 16 0
19 -2 -3 7 -9 13 16 0
-18 -2 -3 7 10 13 16 0
19 -2 -3 -9 13 -6 -15 0
19 -2 -3 -6 -12 -15 -9 0
19 -2 4 -6 -15 -9 13 0
-18 -2 -3 7 -9 -12 16 0
-18 -2 4 7 10 -12 -15 0
-18 -2 -3 -6 10 13 -15 0
-18 -2 4 10 -6 13 -15 0
19 -2 -3 10 13 -6 16 0
19 -2 -6 10 4 13 16 0
-2 16 -3 -9 -12 -15 -6 0
-2 -15 4 13 -6 -9 16 0
-7 9 -16 15 -4 12 2 0
-4 9 -16 6 15 12 2 0
-2 16 -6 10 4 13 -15 0
-2 16 -3 10 -6 13 -15 0
19 -2 4 7 10 -12 -15 0
19 -2 -3 7 10 13 16 0
19 -2 -3 7 10 13 -15 0
-18 -2 4 7 -9 13 16 0
-18 -2 4 7 -9 13 -15 0
-2 16 -3 7 10 13 -15 0
-18 -2 4 7 10 13 -15 0
-18 -2 -6 10 -12 16 4 0
-13 15 -16 -4 6 9 2 0
-18 -2 4 10 -6 13 16 0
-18 -2 4 7 10 16 13 0
19 -2 -3 10 -6 13 -15 0
19 -2 -6 10 4 13 -15 0
-13 15 -16 -10 3 6 2 0
-2 16 -3 -9 13 -6 -15 0
-18 -2 -3 -9 -12 16 -6 0
-18 -2 -3 -9 -6 13 16 0
-2 -15 4 7 10 16 13 0
-18 -2 -3 7 10 13 -15 0
-18 -2 -3 7 -9 16 13 0
-2 -15 -3 7 -9 13 -18 0
-7 9 -16 15 3 2 -13 0
-13 15 -16 9 6 3 2 0
19 -2 7 10 16 4 13 0
-2 16 -3 -6 10 -12 -15 0
-18 -2 -3 7 10 16 -12 0
-18 -2 4 7 10 -12 16 0
-2 16 -6 10 -15 4 -12 0
-18 -2 -3 -6 -9 -12 -15 0
-18 -2 4 -6 10 -12 -15 0
19 -2 -6 10 4 -12 -15 0
19 -2 -3 -6 10 -15 -12 0
19 -2 -3 7 10 -15 -12 0
-18 -2 4 7 -9 -12 16 0
-18 -2 -3 7 -9 -15 -12 0
-2 10 -3 -6 -18 -15 -12 0
-2 16 4 7 10 -12 -15 0
-2 16 -3 7 10 -12 -15 0
-7 9 -16 15 12 3 2 0
19 -2 4 -6 -9 13 16 0
19 -2 -3 7 -9 -12 16 0
-18 -2 4 -6 13 16 -9 0
-7 9 -16 -4 15 2 -13 0
19 -2 -6 10 4 16 -12 0
9 15 -16 3 6 12 2 0
19 -2 -6 -12 16 -9 4 0
19 -2 4 -6 -12 -15 -9 0
-7 15 -16 3 -10 2 -13 0
-13 -7 -16 -10 -4 15 2 0
-2 -15 4 -6 -12 16 -9 0
19 -2 4 7 10 -15 13 0
-18 -2 4 -6 -12 16 -9 0
-18 -2 4 -6 -12 -15 -9 0
19 -2 4 7 -9 13 16 0
-18 -2 -3 -9 13 -6 -15 0
-13 15 -16 6 -10 -4 2 0
-2 10 -18 -3 7 -12 -15 0
-7 15 -16 -10 3 12 2 0
15 -16 -10 3 6 12 2 0
-7 15 -16 -10 -4 12 2 0
-4 15 -16 -10 6 12 2 0
-7 9 -16 12 3 2 18 -19 0
-7 9 -16 -4 12 2 18 -19 0
-7 9 3 15 12 2 18 -19 0
-7 -4 9 15 12 2 18 -19 0
-7 -16 -10 3 12 2 18 -19 0
-7 -4 -16 -10 12 2 18 -19 0
-7 -13 3 9 15 2 18 -19 0
-7 -4 9 15 2 -13 18 -19 0
-13 -7 3 15 -10 2 18 -19 0
-13 9 3 6 15 2 18 -19 0
-13 -4 9 6 15 2 -19 18 0
-13 9 -16 -4 6 2 18 -19 0
-7 9 -16 3 2 -13 18 -19 0
-7 9 -16 -4 2 -13 18 -19 0
-7 15 -10 3 12 2 -19 18 0
-13 -7 -16 -10 -4 2 18 -19 0
-13 -7 -10 -4 15 2 18 -19 0
-13 -4 -10 6 15 2 18 -19 0
-4 9 -16 6 12 2 18 -19 0
-13 -4 -16 -10 6 2 18 -19 0
-7 -16 -10 3 2 -13 18 -19 0
-13 15 -10 3 6 2 18 -19 0
-13 -16 -10 3 6 2 18 -19 0
-13 9 -16 6 3 2 18 -19 0
9 -16 3 6 12 2 18 -19 0
-4 9 6 15 12 2 18 -19 0
-7 -4 -10 2 15 12 18 -19 0
-4 15 -10 6 12 2 18 -19 0
-4 -16 -10 6 12 2 18 -19 0
9 3 6 2 15 12 18 -19 0
15 -10 3 6 12 2 18 -19 0
-10 -16 3 6 12 2 18 -19 0
